% Auto-generated by scripts/generate_dzn.py
% problem_type   = nonogram
% instance       = nonogram_9
% source_json    = instances_json/0_low_blowup/nonogram_9.json
% blowup         = 1.2040816326530612
% representation = DFA

mode = 0;

height = 5;
width = 5;
Q = 7;
S = 2;
row_q0 = [1, 1, 1, 1, 1];
row_F = [{6}, {5}, {6}, {1}, {6}];
col_q0 = [1, 1, 1, 1, 1];
col_F = [{6}, {5}, {2}, {6}, {6}];
row_d_dfa = array3d(1..5, 1..7, 1..2, [
  % k = 1
    1, 2,
    7, 3,
    4, 7,
    4, 5,
    7, 6,
    6, 7,
    7, 7,

  % k = 2
    1, 2,
    6, 3,
    4, 6,
    4, 5,
    5, 6,
    6, 6,
    0, 0,

  % k = 3
    1, 2,
    3, 7,
    3, 4,
    7, 5,
    7, 6,
    6, 7,
    7, 7,

  % k = 4
    1, 2,
    2, 2,
    0, 0,
    0, 0,
    0, 0,
    0, 0,
    0, 0,

  % k = 5
    1, 2,
    7, 3,
    4, 7,
    4, 5,
    7, 6,
    6, 7,
    7, 7
]);
row_d_nfa = array3d(1..5, 1..7, 1..2, [
  % k = 1
    {}, {},
    {}, {},
    {}, {},
    {}, {},
    {}, {},
    {}, {},
    {}, {},

  % k = 2
    {}, {},
    {}, {},
    {}, {},
    {}, {},
    {}, {},
    {}, {},
    {}, {},

  % k = 3
    {}, {},
    {}, {},
    {}, {},
    {}, {},
    {}, {},
    {}, {},
    {}, {},

  % k = 4
    {}, {},
    {}, {},
    {}, {},
    {}, {},
    {}, {},
    {}, {},
    {}, {},

  % k = 5
    {}, {},
    {}, {},
    {}, {},
    {}, {},
    {}, {},
    {}, {},
    {}, {}
]);
col_d_dfa = array3d(1..5, 1..7, 1..2, [
  % k = 1
    1, 2,
    7, 3,
    7, 4,
    5, 7,
    5, 6,
    6, 7,
    7, 7,

  % k = 2
    1, 2,
    6, 3,
    4, 6,
    4, 5,
    5, 6,
    6, 6,
    0, 0,

  % k = 3
    1, 2,
    2, 3,
    3, 3,
    0, 0,
    0, 0,
    0, 0,
    0, 0,

  % k = 4
    1, 2,
    3, 7,
    3, 4,
    5, 7,
    5, 6,
    6, 7,
    7, 7,

  % k = 5
    1, 2,
    7, 3,
    7, 4,
    5, 7,
    5, 6,
    6, 7,
    7, 7
]);
col_d_nfa = array3d(1..5, 1..7, 1..2, [
  % k = 1
    {}, {},
    {}, {},
    {}, {},
    {}, {},
    {}, {},
    {}, {},
    {}, {},

  % k = 2
    {}, {},
    {}, {},
    {}, {},
    {}, {},
    {}, {},
    {}, {},
    {}, {},

  % k = 3
    {}, {},
    {}, {},
    {}, {},
    {}, {},
    {}, {},
    {}, {},
    {}, {},

  % k = 4
    {}, {},
    {}, {},
    {}, {},
    {}, {},
    {}, {},
    {}, {},
    {}, {},

  % k = 5
    {}, {},
    {}, {},
    {}, {},
    {}, {},
    {}, {},
    {}, {},
    {}, {}
]);
